num_offers = 25;
num_halls = 10;
start=[47,14,34,34,74,64,25,41,17,22,27,31,31,17,44,22,53,3,57,9,49,37,49,19,16];
end=[56,55,88,54,75,74,50,94,19,89,36,52,77,23,73,28,68,52,80,86,59,64,97,54,98];
price=[735,2639,1549,1343,100,623,1762,2342,62,3723,107,1816,1227,127,1687,521,1395,3027,1739,2351,535,2101,2745,766,1475];
requirement=[990,554,688,378,668,486,406,706,940,207,539,912,470,584,958,677,929,573,863,684,431,951,798,916,249];
capacity=[994,981,555,734,881,635,546,997,236,288];
